Version identifier: 22.1.0.0 | 2022-03-09 | 1a383f8ce
CPXPARAM_Threads                                 1
CPXPARAM_MIP_Strategy_VariableSelect             3
CPXPARAM_TimeLimit                               600
Tried aggregator 1 time.
Reduced MIP has 4520 rows, 18000 columns, and 95862 nonzeros.
Reduced MIP has 14000 binaries, 4000 generals, 0 SOSs, and 0 indicators.
Presolve time = 0.06 sec. (39.25 ticks)
Found incumbent of value 476.415597 after 0.16 sec. (102.82 ticks)
Probing time = 0.01 sec. (5.98 ticks)
Tried aggregator 1 time.
Detecting symmetries...
Reduced MIP has 4520 rows, 18000 columns, and 95862 nonzeros.
Reduced MIP has 14000 binaries, 4000 generals, 0 SOSs, and 0 indicators.
Presolve time = 0.07 sec. (48.59 ticks)
Probing time = 0.01 sec. (5.99 ticks)
Clique table members: 509.
MIP emphasis: balance optimality and feasibility.
MIP search method: dynamic search.
Parallel mode: none, using 1 thread.
Root relaxation solution time = 5.48 sec. (4880.21 ticks)

        Nodes                                         Cuts/
   Node  Left     Objective  IInf  Best Integer    Best Bound    ItCnt     Gap

*     0+    0                          476.4156        0.0000           100.00%
      0     0        0.0000  3674      476.4156        0.0000    12732  100.00%
      0     0        0.0000  1215      476.4156   ZeroHalf: 3    17285  100.00%
      0     0        0.0000  1074      476.4156   ZeroHalf: 4    19052  100.00%
      0     0        0.0000  1381      476.4156 ZeroHalf: 153    26080  100.00%
*     0+    0                          127.8692        0.0000           100.00%
*     0+    0                          111.9754        0.0000           100.00%
*     0+    0                          109.3250        0.0000           100.00%
*     0+    0                          109.0650        0.0000           100.00%
      0     0  -1.00000e+75     0      109.0650        0.0000    26080  100.00%
*     0+    0                          108.6503        0.0000           100.00%
*     0+    0                           12.1264        0.0000           100.00%
*     0+    0                           11.1964        0.0000           100.00%
      0     0  -1.00000e+75     0       11.1964        0.0000    26080  100.00%
Detecting symmetries...
      0     2        0.0000   655       11.1964        0.0000    26080  100.00%
Elapsed time = 91.15 sec. (81345.92 ticks, tree = 0.01 MB, solutions = 8)
      1     3        0.0000  2329       11.1964        0.0000    58252  100.00%
      2     4        0.0000   967       11.1964        0.0000    69810  100.00%
      3     5        0.0000  1259       11.1964        0.0000    82396  100.00%
      4     6        0.0000  1058       11.1964        0.0000    82755  100.00%
      5     7        0.0000   743       11.1964        0.0000    90795  100.00%
      6     8        0.0000   868       11.1964        0.0000   102676  100.00%
      7     9        0.0000   730       11.1964        0.0000   104871  100.00%
      8    10        0.0000   734       11.1964        0.0000   107163  100.00%
      9    11        0.0000   743       11.1964        0.0000   107554  100.00%
*    10+   10                           10.1284        0.0000           100.00%
     10    12        0.0000   703       10.1284        0.0000   108192  100.00%
Elapsed time = 149.94 sec. (134726.87 ticks, tree = 0.27 MB, solutions = 9)
     11    13        0.0000   648       10.1284        0.0000   112953  100.00%
     12    14        0.0000   617       10.1284        0.0000   114220  100.00%
     13    15        0.0000  1023       10.1284        0.0000   126435  100.00%
     14    16        0.0000   622       10.1284        0.0000   129724  100.00%
     15    17        0.0000   574       10.1284        0.0000   139666  100.00%
     16    18        0.0000   652       10.1284        0.0000   145976  100.00%
     17    19        0.0000   609       10.1284        0.0000   147103  100.00%
     18    20        0.0000   616       10.1284        0.0000   154539  100.00%
     19    21        0.0000   730       10.1284        0.0000   162221  100.00%
     20    22        0.0000  1125       10.1284        0.0000   172802  100.00%
Elapsed time = 184.20 sec. (165432.25 ticks, tree = 0.63 MB, solutions = 9)
     21    23        0.0000   667       10.1284        0.0000   179037  100.00%
     22    24        0.0003  1018       10.1284        0.0000   190576  100.00%
     23    25        0.0000   625       10.1284        0.0000   198163  100.00%
     24    26        0.0000   633       10.1284        0.0000   201790  100.00%
     26    28        0.0000   572       10.1284        0.0000   210303  100.00%
     27    29        0.0000   646       10.1284        0.0000   214314  100.00%
     28    30        0.0000   825       10.1284        0.0000   217920  100.00%
     30    32        0.0000   673       10.1284        0.0000   227508  100.00%
     31    33        0.0000  1033       10.1284        0.0000   236908  100.00%
     32    34        0.0000   854       10.1284        0.0000   256579  100.00%
Elapsed time = 223.55 sec. (197838.69 ticks, tree = 1.11 MB, solutions = 9)
     34    36        0.0000   630       10.1284        0.0000   261820  100.00%
     35    37        0.0000   699       10.1284        0.0000   264957  100.00%
     37    39        0.0000   649       10.1284        0.0000   283139  100.00%
     38    40        0.0000   807       10.1284        0.0000   293393  100.00%
     39    41        0.0000   753       10.1284        0.0000   303755  100.00%
     40    42        0.0000   751       10.1284        0.0000   305934  100.00%
     42    44        0.0000   754       10.1284        0.0000   329630  100.00%
     44    46       -0.0000  1442       10.1284        0.0000   358113  100.00%
     46    48        0.0000   670       10.1284        0.0000   387341  100.00%
     47    49        0.0000   671       10.1284        0.0000   390699  100.00%
Elapsed time = 260.51 sec. (226971.11 ticks, tree = 1.69 MB, solutions = 9)
     48    50        0.0000   605       10.1284        0.0000   399097  100.00%
     49    51        0.0000   587       10.1284        0.0000   408080  100.00%
     50    52        0.0000   621       10.1284        0.0000   418352  100.00%
     51    53        0.0000   585       10.1284        0.0000   423159  100.00%
     52    54        0.0000   709       10.1284        0.0000   430241  100.00%
     53    55        0.0000   651       10.1284        0.0000   433841  100.00%
     55    57        0.0000   786       10.1284        0.0000   446651  100.00%
     57    59        0.0000   561       10.1284        0.0000   454524  100.00%
     59    61        0.0000   675       10.1284        0.0000   466060  100.00%
     61    63        0.0000   536       10.1284        0.0000   470820  100.00%
Elapsed time = 285.66 sec. (246546.03 ticks, tree = 2.30 MB, solutions = 9)
     62    64        0.0000   766       10.1284        0.0000   485348  100.00%
     64    66        0.0000   553       10.1284        0.0000   499307  100.00%
     66    68        0.0000   700       10.1284        0.0000   511841  100.00%
     68    70        0.0000   650       10.1284        0.0000   522805  100.00%
     70    72        0.0000   527       10.1284        0.0000   536383  100.00%
     71    73        0.0000   477       10.1284        0.0000   543209  100.00%
     72    74        0.0000   551       10.1284        0.0000   555019  100.00%
     73    75        0.0000   486       10.1284        0.0000   558213  100.00%
     74    76        0.0000   522       10.1284        0.0000   567755  100.00%
     75    77        0.0000   558       10.1284        0.0000   572419  100.00%
Elapsed time = 308.71 sec. (263440.34 ticks, tree = 2.87 MB, solutions = 9)
     76    78        0.0000   587       10.1284        0.0000   578168  100.00%
     78    80        0.0000   623       10.1284        0.0000   591248  100.00%
     80    82       -0.0000   604       10.1284        0.0000   595525  100.00%
     82    84        0.0000   959       10.1284        0.0000   610430  100.00%
     84    86        0.0000   818       10.1284        0.0000   627847  100.00%
     86    88        0.0000   594       10.1284        0.0000   634776  100.00%
     87    89        0.0000   586       10.1284        0.0000   637515  100.00%
     88    90        0.0000   577       10.1284        0.0000   639631  100.00%
     89    91        0.0000   534       10.1284        0.0000   654153  100.00%
     91    93       -0.0000   656       10.1284        0.0000   657000  100.00%
Elapsed time = 335.57 sec. (284659.76 ticks, tree = 3.52 MB, solutions = 9)
     92    94       -0.0000   621       10.1284        0.0000   658310  100.00%
     93    95        0.0000   634       10.1284        0.0000   661135  100.00%
     94    96       -0.0000   510       10.1284        0.0000   668812  100.00%
     95    97       -0.0000   563       10.1284        0.0000   669889  100.00%
     96    98        0.0000   805       10.1284        0.0000   676950  100.00%
     97    99       -0.0000   592       10.1284        0.0000   681442  100.00%
     98   100        0.0000   767       10.1284        0.0000   685094  100.00%
     99   101       -0.0000   617       10.1284        0.0000   694256  100.00%
    100   102        0.0000   758       10.1284        0.0000   697951  100.00%
    101   103        0.0000   618       10.1284        0.0000   704914  100.00%
Elapsed time = 367.60 sec. (313181.60 ticks, tree = 3.89 MB, solutions = 9)
    102   104        0.0000   778       10.1284        0.0000   717917  100.00%
    104   106        0.0000   659       10.1284        0.0000   727963  100.00%
    105   107        0.0000   623       10.1284        0.0000   735718  100.00%
    106   108        0.0000   731       10.1284        0.0000   745196  100.00%
    108   110        0.0000   572       10.1284        0.0000   756686  100.00%
    109   111        0.0000   592       10.1284        0.0000   765004  100.00%
    111   113        0.0000   879       10.1284        0.0000   777369  100.00%
    113   115        0.0000   596       10.1284        0.0000   787872  100.00%
    115   117        0.0000   617       10.1284        0.0000   798883  100.00%
    117   119        0.0000   557       10.1284        0.0000   804458  100.00%
Elapsed time = 390.62 sec. (329288.59 ticks, tree = 4.59 MB, solutions = 9)
    118   120        0.0000   546       10.1284        0.0000   808540  100.00%
    119   121        0.0000   556       10.1284        0.0000   811483  100.00%
    120   122        0.0000   641       10.1284        0.0000   820324  100.00%
    121   123        0.0000   555       10.1284        0.0000   824018  100.00%
    122   124        0.0000   601       10.1284        0.0000   837986  100.00%
    124   126        0.0000   518       10.1284        0.0000   841418  100.00%
    125   127        0.0000   424       10.1284        0.0000   850522  100.00%
    127   129        0.0000   349       10.1284        0.0000   858442  100.00%
    128   130        0.0000   332       10.1284        0.0000   862617  100.00%
    130   132        0.0000   331       10.1284        0.0000   870422  100.00%
Elapsed time = 412.38 sec. (347338.06 ticks, tree = 5.13 MB, solutions = 9)
    131   133       -0.0000   887       10.1284        0.0000   885288  100.00%
    135   137       -0.0000   753       10.1284        0.0000   894416  100.00%
    137   139        0.0000  1323       10.1284        0.0000   905488  100.00%
    138   140        0.0000   670       10.1284        0.0000   914899  100.00%
    139   141       -0.0000   742       10.1284        0.0000   926817  100.00%
    140   142        0.0000   653       10.1284        0.0000   926835  100.00%
    141   143        0.0000  1033       10.1284        0.0000   942911  100.00%
    144   146       -0.0000   566       10.1284        0.0000   951271  100.00%
    146   148       -0.0000   787       10.1284        0.0000   958691  100.00%
*   150+  150                            6.2483        0.0000           100.00%
    151   153        0.0000   779        6.2483        0.0000   976332  100.00%
Elapsed time = 505.14 sec. (431177.05 ticks, tree = 5.82 MB, solutions = 10)
    157   159        0.0000   494        6.2483        0.0000  1001355  100.00%
    162   164        0.0000   476        6.2483        0.0000  1027137  100.00%
    166   168        0.0000   473        6.2483        0.0000  1041265  100.00%
    169   171        0.0000   346        6.2483        0.0000  1067349  100.00%
    170   172        0.0000   745        6.2483        0.0000  1078545  100.00%
    172   174        0.0000   266        6.2483        0.0000  1096694  100.00%
    173   175        0.0000   836        6.2483        0.0000  1107984  100.00%
    174   176        0.0000   686        6.2483        0.0000  1112379  100.00%
    175   177       -0.0000   761        6.2483        0.0000  1120344  100.00%
    178   180        0.0000   646        6.2483        0.0000  1144047  100.00%
Elapsed time = 570.73 sec. (487414.89 ticks, tree = 6.87 MB, solutions = 10)
    180   182       -0.0000   687        6.2483        0.0000  1152462  100.00%
    183   185        0.0000   662        6.2483        0.0000  1156000  100.00%
    185   187        0.0000   702        6.2483        0.0000  1162684  100.00%
    187   189        0.0000   857        6.2483        0.0000  1170574  100.00%
    189   191        0.0000   783        6.2483        0.0000  1176275  100.00%

Zero-half cuts applied:  49

Root node processing (before b&c):
  Real time             =   91.11 sec. (81316.99 ticks)
Sequential b&c:
  Real time             =  508.90 sec. (431785.74 ticks)
                          ------------
Total (root+branch&cut) =  600.01 sec. (513102.73 ticks)
Violation-free sequence bound:	118
Unscheduled:	382
Status:	Feasible
Time:	599.96
Sequence:
	9
	0
	16
	9
	0
	16
	9
	0
	5
	10
	15
	0
	10
	2
	3
	0
	9
	6
	11
	9
	13
	11
	9
	6
	11
	9
	4
	0
	9
	3
	11
	1
	15
	11
	1
	15
	11
	1
	15
	11
	1
	15
	11
	1
	15
	11
	1
	15
	7
	1
	12
	16
	1
	12
	7
	19
	12
	7
	1
	0
	15
	10
	0
	15
	10
	0
	15
	10
	0
	15
	10
	0
	15
	1
	11
	2
	1
	11
	3
	3
	18
	2
	4
	18
	2
	4
	18
	2
	3
	18
	4
	5
	8
	16
	4
	8
	14
	6
	9
	14
	0
	9
	14
	0
	9
	7
	5
	8
	16
	6
	17
	7
	6
	9
	0
	13
	19
	12
	18
	10
	12
	6
	10
	12
	6
	14
	2
	0
	14
	7
	3
	17
	14
	3
	18
	4
	8
	18
	0
	2
	3
	19
	2
	3
	8
	2
	19
	7
	2
	4
	18
	2
	3
	18
	2
	4
	18
	2
	3
	18
	2
	4
	10
	12
	5
	19
	12
	7
	19
	12
	16
	19
	12
	16
	1
	12
	7
	19
	12
	7
	1
	12
	7
	19
	12
	7
	1
	12
	16
	1
	12
	7
	1
	12
	7
	19
	12
	14
	19
	12
	7
	19
	12
	16
	19
	12
	14
	19
	0
	2
	10
	0
	15
	10
	4
	2
	18
	4
	2
	18
	4
	2
	18
	4
	3
	17
	14
	13
	17
	14
	4
	8
	16
	13
	17
	14
	13
	8
	16
	4
	17
	14
	13
	17
	14
	3
	17
	7
	4
	8
	16
	13
	17
	14
	13
	8
	16
	13
	8
	14
	13
	17
	14
	4
	17
	14
	5
	2
	18
	4
	2
	18
	4
	2
	18
	3
	3
	8
	14
	13
	8
	16
	13
	8
	16
	6
	8
	7
	6
	17
	7
	5
	8
	6
	5
	8
	7
	5
	8
	7
	3
	17
	7
	5
	8
	7
	13
	17
	14
	13
	17
	7
	5
	8
	16
	13
	8
	5
	3
	18
	4
	3
	17
	7
	4
	17
	7
	5
	9
	0
	7
	19
	12
	7
	19
	12
	3
	1
	15
	11
	10
	15
	0
	10
	2
	3
	18
	2
	4
	10
	15
	0
	1
	6
	12
	10
	5
	11
	9
	13
	11
	1
	5
	12
	10
	6
	0
	10
	15
	0
	10
	15
	0
	10
	6
	12
	1
	16
	12
	1
	16
	12
	19
	16
	12
	19
	5
	11
	19
	2
	11
	1
	15
	11
	1
	5
	11
	10
	15
	11
	1
	6
	11
	17
	3
	12
	8
	13
	11
	9
	4
	11
	9
	13
	11
	9
	4
	11
	9
	6
	11
	9
	4
	11
	9
	13
	11
	9
	13
	16
	9
	4
	16
	9
	6
	16
	9
	6
	16
	8
	13
	14
	8
	5
	14
	17
	13
	14
	17
	13
	7
	17
	13
	16
	8
	5
	7
	8
	5
	7
	17
	13
	16
	8
	13
	16
	8
	4
	14
	8
	5
	14
	8
	13
	16
	8
	4
	14
	17
	13
	14
	17
	4
	16
	8
	13
	7
	8
	5
	7
	17
	13
	16
	8
	5
	7
	8
	6
	7
	17
Violation-free sequence:
	9
	0
	16
	9
	0
	16
	9
	0
	5
	10
	15
	0
	10
	2
	3
	0
	9
	6
	11
	9
	13
	11
	9
	6
	11
	9
	4
	0
	9
	3
	11
	1
	15
	11
	1
	15
	11
	1
	15
	11
	1
	15
	11
	1
	15
	11
	1
	15
	7
	1
	12
	16
	1
	12
	7
	19
	12
	7
	1
	0
	15
	10
	0
	15
	10
	0
	15
	10
	0
	15
	10
	0
	15
	1
	11
	2
	1
	11
	3
	3
	18
	2
	4
	18
	2
	4
	18
	2
	3
	18
	4
	5
	8
	16
	4
	8
	14
	6
	9
	14
	0
	9
	14
	0
	9
	7
	5
	8
	16
	6
	17
	7
	6
	9
	0
	13
	19
	12
